\ Model fair_assignment
\ LP format - for model browsing. Use MPS format to capture full model detail.
Minimize
 
Subject To
 C8: x_0,0 + x_1,0 = 1
 C8: x_0,1 + x_1,1 = 1
 C8: x_1,2 = 1
 C12: x_0,2 = 0
 C8: x_0,3 = 1
 C12: x_1,3 = 0
Bounds
Binaries
 x_0,0 x_1,0 x_0,1 x_1,1 x_0,2 x_1,2 x_0,3 x_1,3
End
